BLABLIBLU STP File, STP Format Version 1.0

SECTION Comments
Name "Ex3"
Creator "I"
Problem "Maximum Weight Connected Matching"
END

SECTION Graph
Nodes 5
Edges 6
E 1 2
E 1 3
E 2 3
E 3 4
E 3 5
E 4 5
END

SECTION Terminals
Terminals 5
T 1  9
T 3 -12
T 5  1
T 2  1
T 4  9
END

EOF
